100
128
42
47
2
3
13
19
20
12
6
16
9
10
48
7
41
34
63
38
5
57
20
48
48
27
30
3
46
45
15
18
52
28
15
15
64
63
17
61
15
52
29
46
36
1
52
20
46
48
32
19
19
30
56
55
23
3
51
41
31
16
20
24
16
16
20
49
64
29
58
1
34
61
62
36
20
48
48
2
40
36
23
63
29
6
34
61
34
43
64
64
51
39
28
34
32
30
26
42
39
47